Maximize

1715.0 x_0 + 955.0 x_1 + 377.0 x_2 + 1212.0 x_3 + 1427.0 x_4 + 240.0 x_5 + 610.0 x_6 + 2180.0 x_7 + 1590.0 x_8 + 1900.0 x_9 + 967.0 x_10 + 1447.0 x_11 + 1240.0 x_12 + 240.0 x_13 + 2175.0 x_14 + 1930.0 x_15 + 610.0 x_16 + 2540.0 x_17 + 867.0 x_18 + 1675.0 x_19


Subject To

a0: 371 x_19 <= 1795
b0: 295 x_19 <= 1740
c0: x_0 <= 2
c1: x_1 <= 3
c2: x_2 <= 5
c3: x_3 <= 2
c4: x_4 <= 3
c5: x_5 <= 5
c6: x_6 <= 4
c7: x_7 <= 3
c8: x_8 <= 3
c9: x_9 <= 2
c10: x_10 <= 3
c11: x_11 <= 3
c12: x_12 <= 2
c13: x_13 <= 5
c14: x_14 <= 2
c15: x_15 <= 3
c16: x_16 <= 5
c17: x_17 <= 2
c18: x_18 <= 4
c19: x_19 <= 3



Bounds


x_0 < 20
x_1 < 20
x_2 < 20
x_3 < 20
x_4 < 20
x_5 < 20
x_6 < 20
x_7 < 20
x_8 < 20
x_9 < 20
x_10 < 20
x_11 < 20
x_12 < 20
x_13 < 20
x_14 < 20
x_15 < 20
x_16 < 20
x_17 < 20
x_18 < 20
x_19 < 20




General

 x_0 x_1 x_2 x_3 x_4 x_5 x_6 x_7 x_8 x_9 x_10 x_11 x_12 x_13 x_14 x_15 x_16 x_17 x_18 x_19



End
